maxTime = 10;
budget  = 1;

fireLocations = [5];

from = [1, 1, 1, 2, 2, 2, 3, 3, 4, 4, 5, 5, 5, 5, 6, 6, 6, 7, 7, 7, 8, 8];
to   = [2, 4, 5, 1, 3, 6, 2, 5, 1, 6, 1, 3, 7, 8, 2, 4, 7, 5, 6, 8, 5, 7];
